(set-logic QF_BV)
(declare-fun _substvar_92_ () (_ BitVec 111))
(declare-fun _substvar_148_ () Bool)
(declare-fun _substvar_86_ () (_ BitVec 111))
(declare-fun _substvar_82_ () (_ BitVec 111))
(declare-fun _substvar_61_ () (_ BitVec 111))
(assert (and true true true true true true true true true true true true true true true true true true true true true true true true true true true true true true true true true true true true true true true true true true true true true true true true true true true true true true true true true true true true true true true true true true true true true true true true true true true true true true true true true true true true true true true true true true true true true true true true true true true true true true true true true true true true true true true true true true true true true true true true true true true true true true true true true true true true true true true true true true true true true true true true true true true true true true true true true true true true true true true true true true true true true true true true true true true true true true true true true true true true true true true true true true true true true true true true true true true true true true true true true true true true true true true true true true true true true true true true true true true true (= _substvar_82_ (_ bv0 111)) (ite _substvar_148_ (= _substvar_86_ (_ bv0 111)) (= _substvar_86_ (concat (_ bv0 110) (bvxor (_ bv0 1) ((_ extract 100 100) _substvar_82_))))) (= _substvar_92_ (concat ((_ extract 109 0) _substvar_86_) (bvxor ((_ extract 110 110) _substvar_86_) ((_ extract 100 100) _substvar_86_)))) (= _substvar_61_ (concat ((_ extract 109 0) _substvar_92_) (_ bv0 1))) true true true (= (= (_ bv0 111) _substvar_61_) false)))
(check-sat)
(exit)
